LAMMPS (22 Jul 2025 - Update 2)
OMP_NUM_THREADS environment is not set. Defaulting to 1 thread.
  using 1 OpenMP thread(s) per MPI task
atom_style full
units real
boundary p p p
box tilt large

The 'box' command has been removed and will be ignored

atom_modify sort 0 0.0

# -------------------- 读取UFF格式data文件 --------------------
read_data       ase_gen.data
Reading data file ...
  orthogonal box = (0 0 0) to (445.81084 445.81084 445.81084)
  1 by 1 by 1 MPI processor grid
  reading atoms ...
  48168 atoms
  reading velocities ...
  48168 velocities
Finding 1-2 1-3 1-4 neighbors ...
  special bond factors lj:    0        0        0       
  special bond factors coul:  0        0        0       
     0 = max # of 1-2 neighbors
     0 = max # of 1-3 neighbors
     0 = max # of 1-4 neighbors
     1 = max # of special neighbors
  special bonds CPU = 0.003 seconds
  read_data CPU = 0.259 seconds
mass 1 12.011000
mass 2 4.008000
mass 3 15.999000

pair_style reaxff NULL
pair_coeff * * reaxff.ff C H O
fix charge all qeq/reax 1 0.0 10.0 1.0e-6 reaxff
newton on

# 快速计算优化：邻居列表设置（不变，保持高效）
neighbor        0.5 bin
neigh_modify    every 10 delay 0 check no one 10000 page 100000

fix             1 all npt temp 360.0 360.0 100.0 iso 1.0 1.0 200.0
thermo_style    custom step temp press pe ke etotal vol density # 实时监控密度变化
thermo          10
dump            1 all custom 10 final.dump id type x y z vx vy vz  # 只输出最后一步
dump_modify     1 sort id
run             10

CITE-CITE-CITE-CITE-CITE-CITE-CITE-CITE-CITE-CITE-CITE-CITE-CITE

Your simulation uses code contributions which should be cited:

- pair reaxff command: doi:10.1016/j.parco.2011.08.005

@Article{Aktulga12,
 author = {H. M. Aktulga and J. C. Fogarty and S. A. Pandit and A. Y. Grama},
 title = {Parallel Reactive Molecular Dynamics: {N}umerical Methods and Algorithmic Techniques},
 journal = {Parallel Computing},
 year =    2012,
 volume =  38,
 number =  {4--5},
 pages =   {245--259}
}

- fix qeq/reaxff command: doi:10.1016/j.parco.2011.08.005

@Article{Aktulga12,
 author = {H. M. Aktulga and J. C. Fogarty and S. A. Pandit and A. Y. Grama},
 title = {Parallel Reactive Molecular Dynamics: {N}umerical Methods and Algorithmic Techniques},
 journal = {Parallel Computing},
 year =    2012,
 volume =  38,
 pages =   {245--259}
}

CITE-CITE-CITE-CITE-CITE-CITE-CITE-CITE-CITE-CITE-CITE-CITE-CITE

Neighbor list info ...
  update: every = 10 steps, delay = 0 steps, check = no
  max neighbors/atom: 10000, page size: 100000
  master list distance cutoff = 10.5
  ghost atom cutoff = 10.5
  binsize = 5.25, bins = 85 85 85
  2 neighbor lists, perpetual/occasional/extra = 2 0 0
  (1) pair reaxff, perpetual
      attributes: half, newton off, ghost
      pair build: half/bin/ghost/newtoff
      stencil: full/ghost/bin/3d
      bin: standard
  (2) fix qeq/reax, perpetual, copy from (1)
      attributes: half, newton off
      pair build: copy
      stencil: none
      bin: none
Per MPI rank memory allocation (min/avg/max) = 785.3 | 785.3 | 785.3 Mbytes
   Step          Temp          Press          PotEng         KinEng         TotEng         Volume        Density    
         0   3.9951867e-05 -77.679618     -4752642.2      0.0057361563  -4752642.2      88603701       0.0072999531 
        10   46.311404      23.560007     -4759288.5      6649.2376     -4752639.3      88294888       0.0073254849 
Loop time of 8.5375 on 1 procs for 10 steps with 48168 atoms

Performance: 0.101 ns/day, 237.153 hours/ns, 1.171 timesteps/s, 56.419 katom-step/s
99.7% CPU use with 1 MPI tasks x 1 OpenMP threads

MPI task timing breakdown:
Section |  min time  |  avg time  |  max time  |%varavg| %total
---------------------------------------------------------------
Pair    | 6.0045     | 6.0045     | 6.0045     |   0.0 | 70.33
Bond    | 3.416e-06  | 3.416e-06  | 3.416e-06  |   0.0 |  0.00
Neigh   | 0.05025    | 0.05025    | 0.05025    |   0.0 |  0.59
Comm    | 0.00084179 | 0.00084179 | 0.00084179 |   0.0 |  0.01
Output  | 0.066573   | 0.066573   | 0.066573   |   0.0 |  0.78
Modify  | 2.415      | 2.415      | 2.415      |   0.0 | 28.29
Other   |            | 0.0003543  |            |       |  0.00

Nlocal:          48168 ave       48168 max       48168 min
Histogram: 1 0 0 0 0 0 0 0 0 0
Nghost:           4360 ave        4360 max        4360 min
Histogram: 1 0 0 0 0 0 0 0 0 0
Neighs:    1.59309e+06 ave 1.59309e+06 max 1.59309e+06 min
Histogram: 1 0 0 0 0 0 0 0 0 0

Total # of neighbors = 1593089
Ave neighs/atom = 33.073597
Ave special neighs/atom = 0
Neighbor list builds = 1
Dangerous builds not checked

write_data      final.data
System init for write_data ...
Total wall time: 0:00:10
